NAME : sample9
TYPE : TSP
DIMENSION : 20
EDGE_WEIGHT_TYPE : EUC_2D
NODE_COORD_SECTION
	0	18,51	-9,47
	1	-6,82	-5,59
	2	14,21	14,31
	3	16,36	0,86
	4	11,37	15,84
	5	9,67	-19,02
	6	16,06	-3,23
	7	2,2	-3,02
	8	0,41	-4,72
	9	18,27	-17,01
	10	9,92	-12,39
	11	-10,8	12,65
	12	6,86	0,14
	13	-8,04	-6,48
	14	-0,42	14,45
	15	-5,05	18,08
	16	0,26	-13,29
	17	13,75	-5,3
	18	-1,05	16,37
	19	10,95	14,71
EOF